30 30
20
3 3 27 7
3 4 27 26
3 5 14 25
3 6 0 14
3 7 27 0
3 8 24 0
3 9 24 8
3 10 0 20
3 11 17 0
3 13 24 17
3 14 0 0
3 16 27 10
3 19 17 11
3 25 14 0
4 3 20 0
4 4 20 3
4 6 20 24
4 8 20 7
4 9 20 15
11 30 3 0
